(set-logic SLIA)
(synth-fun f ((_arg_0 String) (_arg_1 String)) String
    ((Start String (ntString))
     (ntString String (_arg_0 _arg_1 " " "."
(str.++ ntString ntString)
(str.replace ntString ntString ntString)
(str.at ntString ntInt)
(int.to.str ntInt)
(str.ite ntBool ntString ntString)
(str.substr ntString ntInt ntInt)
))
      (ntInt Int (0 1 2
(+ ntInt ntInt)
(- ntInt ntInt)
(str.len ntString)
(str.to.int ntString)
(str.indexof ntString ntString ntInt)
))
(ntBool Bool (true false
(= ntInt ntInt)
(str.prefixof ntString ntString)
(str.suffixof ntString ntString)
(str.contains ntString ntString)
))
))
(constraint (= (f "Nancy" "FreeHafer") "Nancy F."))
(constraint (= (f "Andrew" "Cencici") "Andrew C."))
(constraint (= (f "Jan" "Kotas") "Jan K."))
(constraint (= (f "Mariya" "Sergienko") "Mariya S."))

(check-synth)
(define-fun f_1 ((_arg_0 String) (_arg_1 String)) String (str.++ (str.++ (str.++ _arg_0 " ") (str.at _arg_1 0)) "."))
